500
    1   345   345
    2   299   299
    3   193   193
    4   296   296
    5   467   467
    6   429   429
    7   100   100
    8    65    65
    9   141   141
   10   123   123
   11   291   291
   12   202   202
   13   170   170
   14   499   499
   15   281   281
   16   401   401
   17    46    46
   18   196   196
   19    59    59
   20   404   404
   21   357   357
   22   204   204
   23   100   100
   24   220   220
   25   493   493
   26   408   408
   27   161   161
   28   327   327
   29   206   206
   30   148   148
   31   254   254
   32   117   117
   33   310   310
   34   111   111
   35   425   425
   36    15    15
   37   258   258
   38   320   320
   39   407   407
   40   179   179
   41   114   114
   42   291   291
   43   313   313
   44   104   104
   45   401   401
   46   301   301
   47   496   496
   48   393   393
   49   350   350
   50   246   246
   51   121   121
   52    44    44
   53   295   295
   54   473   473
   55   117   117
   56   321   321
   57   439   439
   58    63    63
   59   104   104
   60    94    94
   61   295   295
   62   386   386
   63   141   141
   64   305   305
   65    25    25
   66     5     5
   67   414   414
   68   112   112
   69    45    45
   70   241   241
   71   262   262
   72    70    70
   73   249   249
   74   150   150
   75    18    18
   76   200   200
   77   137   137
   78    64    64
   79   476   476
   80   397   397
   81   416   416
   82   213   213
   83    23    23
   84    95    95
   85   247   247
   86    39    39
   87   259   259
   88   348   348
   89   416   416
   90   304   304
   91   144   144
   92   168   168
   93   395   395
   94   158   158
   95   379   379
   96   134   134
   97   216   216
   98   478   478
   99   157   157
  100   127   127
  101   292   292
  102   100   100
  103   497   497
  104    80    80
  105   434   434
  106   224   224
  107     5     5
  108   106   106
  109   470   470
  110   453   453
  111   157   157
  112   419   419
  113   494   494
  114   224   224
  115   348   348
  116   329   329
  117   309   309
  118   369   369
  119    39    39
  120   336   336
  121   298   298
  122    45    45
  123   432   432
  124   235   235
  125   145   145
  126   271   271
  127   368   368
  128    39    39
  129   409   409
  130    12    12
  131   369   369
  132   434   434
  133   402   402
  134   266   266
  135   268   268
  136   311   311
  137   217   217
  138   270   270
  139   211   211
  140   115   115
  141   419   419
  142    78    78
  143   419   419
  144   404   404
  145   203   203
  146   470   470
  147   240   240
  148   479   479
  149   117   117
  150   200   200
  151   386   386
  152   387   387
  153   360   360
  154   435   435
  155    56    56
  156   222   222
  157   290   290
  158    13    13
  159   220   220
  160   121   121
  161    27    27
  162   376   376
  163    39    39
  164   479   479
  165   472   472
  166     3     3
  167    55    55
  168   187   187
  169   155   155
  170   314   314
  171    79    79
  172   382   382
  173   329   329
  174   423   423
  175    81    81
  176   188   188
  177     7     7
  178   493   493
  179   156   156
  180   200   200
  181   462   462
  182   127   127
  183    46    46
  184   455   455
  185   166   166
  186   287   287
  187   165   165
  188    62    62
  189   365   365
  190   465   465
  191   426   426
  192   272   272
  193   218   218
  194   478   478
  195   398   398
  196   369   369
  197   493   493
  198   138   138
  199   305   305
  200   446   446
  201   362   362
  202   382   382
  203   117   117
  204   215   215
  205   255   255
  206   436   436
  207   137   137
  208   403   403
  209   226   226
  210   156   156
  211   203   203
  212    72    72
  213   476   476
  214   455   455
  215   100   100
  216   242   242
  217   328   328
  218   119   119
  219   198   198
  220   462   462
  221   384   384
  222     3     3
  223   196   196
  224   423   423
  225   242   242
  226   199   199
  227   134   134
  228   145   145
  229   262   262
  230   287   287
  231   320   320
  232    70    70
  233   412   412
  234    72    72
  235   106   106
  236   322   322
  237    98    98
  238   311   311
  239    62    62
  240    60    60
  241    25    25
  242   439   439
  243    82    82
  244   184   184
  245   433   433
  246   103   103
  247   148   148
  248   168   168
  249   354   354
  250   253   253
  251   480   480
  252   198   198
  253   173   173
  254   374   374
  255   297   297
  256    51    51
  257   376   376
  258   465   465
  259    60    60
  260   374   374
  261   147   147
  262   164   164
  263   278   278
  264   296   296
  265   376   376
  266   361   361
  267   317   317
  268    12    12
  269   170   170
  270   431   431
  271   491   491
  272    65    65
  273   326   326
  274   422   422
  275    56    56
  276   455   455
  277   223   223
  278   160   160
  279    29    29
  280   479   479
  281    76    76
  282   327   327
  283   162   162
  284   362   362
  285     8     8
  286    43    43
  287    68    68
  288   173   173
  289   174   174
  290   325   325
  291   299   299
  292   216   216
  293     3     3
  294   326   326
  295   324   324
  296   152   152
  297   306   306
  298    38    38
  299   295   295
  300   444   444
  301   282   282
  302   434   434
  303   238   238
  304   460   460
  305   151   151
  306   473   473
  307   117   117
  308   229   229
  309   139   139
  310   254   254
  311   461   461
  312   337   337
  313   427   427
  314   147   147
  315   268   268
  316   482   482
  317   403   403
  318   325   325
  319   258   258
  320   482   482
  321    70    70
  322   244   244
  323    96    96
  324   407   407
  325    63    63
  326   223   223
  327    71    71
  328   194   194
  329   234   234
  330   394   394
  331   295   295
  332   278   278
  333   256   256
  334   208   208
  335    21    21
  336   197   197
  337   287   287
  338    35    35
  339   110   110
  340   330   330
  341    36    36
  342   364   364
  343   243   243
  344   271   271
  345   218   218
  346   323   323
  347    15    15
  348   415   415
  349    92    92
  350   108   108
  351    44    44
  352    81    81
  353   103   103
  354   300   300
  355   274   274
  356   119   119
  357    99    99
  358    83    83
  359   381   381
  360   170   170
  361   236   236
  362   144   144
  363   490   490
  364   247   247
  365   221   221
  366   462   462
  367   373   373
  368   254   254
  369   438   438
  370   474   474
  371   414   414
  372   367   367
  373    59    59
  374   250   250
  375   398   398
  376    85    85
  377   141   141
  378    41    41
  379   418   418
  380    32    32
  381   215   215
  382   162   162
  383   448   448
  384   213   213
  385   245   245
  386    23    23
  387     1     1
  388   297   297
  389   430   430
  390    37    37
  391   463   463
  392   191   191
  393   221   221
  394   310   310
  395   127   127
  396   305   305
  397   256   256
  398    60    60
  399   242   242
  400   117   117
  401   392   392
  402   221   221
  403   202   202
  404   351   351
  405   284   284
  406    25    25
  407    92    92
  408    27    27
  409   420   420
  410   303   303
  411   250   250
  412   202   202
  413   401   401
  414   116   116
  415    95    95
  416    69    69
  417   472   472
  418   363   363
  419   446   446
  420   496   496
  421   357   357
  422     6     6
  423   389   389
  424   446   446
  425   300   300
  426    82    82
  427   342   342
  428   154   154
  429   363   363
  430    89    89
  431   488   488
  432   104   104
  433   129   129
  434   460   460
  435    13    13
  436    86    86
  437   330   330
  438    45    45
  439   143   143
  440   128   128
  441   423   423
  442   379   379
  443   190   190
  444   416   416
  445   450   450
  446   117   117
  447   453   453
  448   278   278
  449   465   465
  450   398   398
  451   165   165
  452   425   425
  453   212   212
  454   441   441
  455   126   126
  456    87    87
  457   308   308
  458    98    98
  459   264   264
  460   450   450
  461   118   118
  462    45    45
  463   283   283
  464    64    64
  465   302   302
  466   191   191
  467   235   235
  468   149   149
  469    42    42
  470   241   241
  471   153   153
  472   154   154
  473   186   186
  474   300   300
  475   142   142
  476   282   282
  477    70    70
  478    11    11
  479    58    58
  480    84    84
  481   462   462
  482   394   394
  483   212   212
  484   430   430
  485   262   262
  486   499   499
  487   500   500
  488    25    25
  489   467   467
  490   289   289
  491    80    80
  492    87    87
  493    39    39
  494   249   249
  495   367   367
  496    16    16
  497   429   429
  498   458   458
  499   221   221
  500   487   487
82351
